u120_08
150 120 51 54
100 0
22 0
25 0
51 1
95 1
58 2
97 3
30 2
79 4
23 2
53 4
80 5
20 2
65 5
64 6
21 3
26 3
100 7
81 6
98 8
70 9
85 10
92 11
97 12
86 13
71 9
91 14
29 7
63 10
34 8
67 15
23 11
33 11
89 16
94 17
47 12
100 18
37 13
40 14
58 15
73 19
39 16
49 17
79 20
54 19
57 20
98 21
69 22
67 22
49 18
38 21
34 23
96 23
27 24
92 24
82 25
69 26
45 25
69 26
20 7
75 27
97 28
51 27
70 29
29 24
91 30
98 31
77 29
48 28
45 30
43 31
61 32
36 32
82 33
89 34
94 35
26 13
35 32
58 33
58 34
57 36
46 35
44 36
91 37
49 37
52 38
65 38
42 36
33 39
60 39
37 39
57 40
91 40
52 41
95 41
84 42
72 43
75 43
89 44
81 45
67 45
74 46
87 47
60 42
32 38
76 48
85 49
59 44
62 46
39 47
64 48
52 49
88 50
45 50
29 51
88 51
85 52
54 52
40 53
57 53